(declare-sort Loc 0)
(declare-const f431_0_createList_Load Loc)
(declare-const f817_0_createList_Load Loc)
(declare-const f2511_0_createList_Load Loc)
(declare-const f2869_0_createList_Load Loc)
(declare-const f1_0_main_Load Loc)
(declare-const f1887_0_random_ArrayAccess Loc)
(declare-const f456_0_createList_Return Loc)
(declare-const f2530_0_createList_Return Loc)
(declare-const f3120_0__init__GE Loc)
(declare-const f3405_0__init__LE Loc)
(declare-const f6007_0_hasNext_EQ Loc)
(declare-const f1829_0_createList_LE Loc)
(declare-const f4131_0_createList_LE Loc)
(declare-const __init Loc)
(assert (distinct f431_0_createList_Load f817_0_createList_Load f2511_0_createList_Load f2869_0_createList_Load f1_0_main_Load f1887_0_random_ArrayAccess f456_0_createList_Return f2530_0_createList_Return f3120_0__init__GE f3405_0__init__LE f6007_0_hasNext_EQ f1829_0_createList_LE f4131_0_createList_LE __init ))

(define-fun cfg_init ( (pc Loc) (src Loc) (rel Bool) ) Bool
  (and (= pc src) rel))

(define-fun cfg_trans2 ( (pc Loc) (src Loc)
                         (pc1 Loc) (dst Loc)
                         (rel Bool) ) Bool
  (and (= pc src) (= pc1 dst) rel))

(define-fun cfg_trans3 ( (pc Loc) (exit Loc)
                         (pc1 Loc) (call Loc)
                         (pc2 Loc) (return Loc)
                         (rel Bool) ) Bool
  (and (= pc exit) (= pc1 call) (= pc2 return) rel))

(define-fun init_main ( (pc Loc) (arg1 Int) (arg2 Int) (arg3 Int) (arg4 Int) (arg5 Int) (arg6 Int) (arg7 Int) (arg8 Int) (arg9 Int) (arg10 Int) (arg11 Int) (arg12 Int) (arg13 Int) (arg14 Int) (arg15 Int) (arg16 Int) (arg17 Int) (arg18 Int) (arg19 Int) (arg20 Int) (arg21 Int) (arg22 Int) (arg23 Int) (arg24 Int) (arg25 Int) ) Bool
  (cfg_init pc __init true))

(define-fun next_main (
                 (pc Loc) (arg1 Int) (arg2 Int) (arg3 Int) (arg4 Int) (arg5 Int) (arg6 Int) (arg7 Int) (arg8 Int) (arg9 Int) (arg10 Int) (arg11 Int) (arg12 Int) (arg13 Int) (arg14 Int) (arg15 Int) (arg16 Int) (arg17 Int) (arg18 Int) (arg19 Int) (arg20 Int) (arg21 Int) (arg22 Int) (arg23 Int) (arg24 Int) (arg25 Int)
                 (pc1 Loc) (arg1P Int) (arg2P Int) (arg3P Int) (arg4P Int) (arg5P Int) (arg6P Int) (arg7P Int) (arg8P Int) (arg9P Int) (arg10P Int) (arg11P Int) (arg12P Int) (arg13P Int) (arg14P Int) (arg15P Int) (arg16P Int) (arg17P Int) (arg18P Int) (arg19P Int) (arg20P Int) (arg21P Int) (arg22P Int) (arg23P Int) (arg24P Int) (arg25P Int)
             ) Bool
  (or
    (cfg_trans2 pc f431_0_createList_Load pc1 f817_0_createList_Load (and (and (and (and (and (and (and (and (and (and (and (and (and (and (and (and (and (> arg2 9) (> arg2P 9)) (<= (+ arg7 3) arg2)) (<= (+ arg6 5) arg2)) (= arg1 arg1P)) (= 0 arg3P)) (= 0 arg4P)) (= arg3 arg5P)) (= arg6P arg7P)) (= 0 arg8P)) (= 0 arg9P)) (= 0 arg10P)) (= arg3 arg15P)) (= arg4 arg16P)) (= arg4 arg17P)) (= arg5 arg19P)) (= arg6 arg22P)) (= arg7 arg23P)))
    (cfg_trans2 pc f2511_0_createList_Load pc1 f2869_0_createList_Load (and (and (and (and (and (and (and (and (and (and (and (and (and (and (and (and (and (> arg2 9) (> arg2P 9)) (<= (+ arg7 3) arg2)) (<= (+ arg6 5) arg2)) (= arg1 arg1P)) (= 0 arg3P)) (= 0 arg4P)) (= arg4 arg5P)) (= arg6P arg7P)) (= 0 arg8P)) (= 0 arg9P)) (= 0 arg10P)) (= arg3 arg15P)) (= arg3 arg16P)) (= arg4 arg17P)) (= arg5 arg19P)) (= arg6 arg22P)) (= arg7 arg23P)))
    (cfg_trans2 pc f1_0_main_Load pc1 f1887_0_random_ArrayAccess (exists ((x36 Int)) (and (and (and (> x36 (- 1)) (> arg2 0)) (> arg1 0)) (= arg2 arg2P))))
    (cfg_trans2 pc f456_0_createList_Return pc1 f1887_0_random_ArrayAccess (and (> arg1 0) (= arg2 arg1P)))
    (cfg_trans2 pc f2530_0_createList_Return pc1 f3120_0__init__GE (and (and (and (and (and (and (and (and (and (and (and (and (and (and (> arg1 6) (> arg7 (- 1))) (> arg1P 8)) (> arg2P 8)) (> arg3P 6)) (<= (+ arg5 7) arg1)) (<= (+ arg6 7) arg1)) (<= (+ arg8 3) arg1)) (<= (+ arg7 5) arg1)) (= arg4 arg5P)) (= arg2 arg6P)) (= arg3 arg7P)) (= 0 arg14P)) (= arg7 arg19P)) (= arg8 arg20P)))
    (cfg_trans2 pc f1887_0_random_ArrayAccess pc1 f3120_0__init__GE (exists ((x64 Int) (x84 Int)) (and (and (and (and (and (and (and (and (and (< x64 arg2) (> x64 (- 1))) (> arg2 0)) (> arg19P (- 1))) (> x84 (- 1))) (> arg1P 8)) (> arg3P 6)) (> arg2P 8)) (= arg1 arg5P)) (= 0 arg14P))))
    (cfg_trans2 pc f3120_0__init__GE pc1 f3405_0__init__LE (and (and (and (and (and (and (and (and (and (and (and (and (and (and (and (and (and (and (and (and (and (and (and (and (and (and (and (and (and (and (and (and (and (> arg1 8) (< arg4 1)) (> arg2 8)) (> arg3 6)) (> arg1P 8)) (> arg2P 8)) (<= (+ arg8 9) arg1)) (<= (+ arg9 9) arg1)) (<= (+ arg19 7) arg1)) (<= (+ arg20 5) arg1)) (<= (+ arg10 4) arg1)) (<= (+ arg11 4) arg1)) (<= (+ arg12 9) arg2)) (<= (+ arg13 9) arg2)) (<= (+ arg19 7) arg2)) (<= (+ arg20 5) arg2)) (>= arg2 (+ arg15 4))) (>= arg2 (+ arg16 4))) (>= arg3 (+ arg17 7))) (>= arg3 (+ arg18 7))) (<= (+ arg20 3) arg3)) (<= (+ arg19 5) arg3)) (= 0 arg14)) (= arg7 arg3P)) (= arg5 arg4P)) (= arg6 arg5P)) (= arg7 arg6P)) (= arg7 arg7P)) (= arg7 arg8P)) (= arg19 arg11P)) (= arg19 arg12P)) (= arg19 arg17P)) (= arg19 arg18P)) (= arg20 arg19P)))
    (cfg_trans2 pc f3405_0__init__LE pc1 f3405_0__init__LE (exists ((x146 Int)) (and (and (and (and (and (and (and (and (and (and (and (and (and (and (and (and (and (and (and (and (and (and (and (and (and (and (and (and (and (and (and (and (and (and (and (and (and (and (and (and (> arg7 0) (> arg3 0)) (> arg8 0)) (> arg12 0)) (> arg3P arg3)) (> arg5 0)) (> arg6 arg3)) (> arg6 0)) (< arg7P arg7)) (< x146 arg8P)) (< x146 arg8)) (> x146 (- 1))) (< x146 arg7P)) (> arg1 8)) (> arg2 8)) (> arg1P 8)) (> arg2P 8)) (<= (+ arg9 9) arg1)) (<= (+ arg10 9) arg1)) (<= (+ arg11 7) arg1)) (<= (+ arg19 5) arg1)) (<= (+ arg12 2) arg1)) (<= (+ arg13 4) arg1)) (<= (+ arg14 4) arg1)) (<= (+ arg15 9) arg2)) (<= (+ arg16 9) arg2)) (<= (+ arg11 7) arg2)) (<= (+ arg19 5) arg2)) (<= (+ arg12 2) arg2)) (<= (+ arg21 4) arg2)) (<= (+ arg20 4) arg2)) (= arg11 arg17)) (= arg12 arg18)) (= arg4 arg4P)) (= arg5 arg5P)) (= arg6 arg6P)) (= arg11 arg11P)) (= (- arg12 1) arg12P)) (= arg11 arg17P)) (= (- arg12 1) arg18P)) (= arg19 arg19P))))
    (cfg_trans2 pc f3405_0__init__LE pc1 f3405_0__init__LE (exists ((x176 Int)) (and (and (and (and (and (and (and (and (and (and (and (and (and (and (and (and (and (and (and (and (and (and (and (and (and (and (and (and (and (and (and (and (and (and (and (and (and (> arg5 (- 1)) (> arg12 0)) (< x176 arg5)) (< arg7P arg6)) (> arg6 (- 1))) (> x176 0)) (> arg7P 0)) (> arg1 8)) (> arg2 8)) (> arg1P 8)) (> arg2P 8)) (<= (+ arg9 9) arg1)) (<= (+ arg10 9) arg1)) (<= (+ arg11 7) arg1)) (<= (+ arg19 5) arg1)) (<= (+ arg12 2) arg1)) (<= (+ arg13 4) arg1)) (<= (+ arg14 4) arg1)) (<= (+ arg15 9) arg2)) (<= (+ arg16 9) arg2)) (<= (+ arg11 7) arg2)) (<= (+ arg19 5) arg2)) (<= (+ arg12 2) arg2)) (<= (+ arg21 4) arg2)) (<= (+ arg20 4) arg2)) (= arg6 arg8)) (= arg11 arg17)) (= arg12 arg18)) (= 1 arg3P)) (= arg4 arg4P)) (= 0 arg5P)) (= 0 arg6P)) (= 0 arg8P)) (= arg11 arg11P)) (= (- arg12 1) arg12P)) (= arg11 arg17P)) (= (- arg12 1) arg18P)) (= arg19 arg19P))))
    (cfg_trans2 pc f3405_0__init__LE pc1 f3405_0__init__LE (exists ((x206 Int) (x207 Int)) (and (and (and (and (and (and (and (and (and (and (and (and (and (and (and (and (and (and (and (and (and (and (and (and (and (and (and (and (and (and (and (and (and (and (and (and (> arg5 (- 1)) (> arg12 0)) (< x206 arg5)) (< x207 arg6)) (> arg6 (- 1))) (> x206 0)) (> arg1 8)) (> arg2 8)) (> arg1P 8)) (> arg2P 8)) (<= (+ arg9 9) arg1)) (<= (+ arg10 9) arg1)) (<= (+ arg11 7) arg1)) (<= (+ arg19 5) arg1)) (<= (+ arg12 2) arg1)) (<= (+ arg13 4) arg1)) (<= (+ arg14 4) arg1)) (<= (+ arg15 9) arg2)) (<= (+ arg16 9) arg2)) (<= (+ arg11 7) arg2)) (<= (+ arg19 5) arg2)) (<= (+ arg12 2) arg2)) (<= (+ arg21 4) arg2)) (<= (+ arg20 4) arg2)) (= arg6 arg8)) (= arg11 arg17)) (= arg12 arg18)) (= 1 arg3P)) (= arg4 arg4P)) (= 1 arg6P)) (= 1 arg7P)) (= 1 arg8P)) (= arg11 arg11P)) (= (- arg12 1) arg12P)) (= arg11 arg17P)) (= (- arg12 1) arg18P)) (= arg19 arg19P))))
    (cfg_trans2 pc f3405_0__init__LE pc1 f3405_0__init__LE (exists ((x238 Int)) (and (and (and (and (and (and (and (and (and (and (and (and (and (and (and (and (and (and (and (and (and (and (and (and (and (and (and (and (and (and (and (and (and (and (and (> arg5 (- 1)) (> arg12 0)) (< x238 arg5)) (< arg7P arg6)) (> arg6 (- 1))) (> arg7P 0)) (> arg1 8)) (> arg2 8)) (> arg1P 8)) (> arg2P 8)) (<= (+ arg9 9) arg1)) (<= (+ arg10 9) arg1)) (<= (+ arg11 7) arg1)) (<= (+ arg19 5) arg1)) (<= (+ arg12 2) arg1)) (<= (+ arg13 4) arg1)) (<= (+ arg14 4) arg1)) (<= (+ arg15 9) arg2)) (<= (+ arg16 9) arg2)) (<= (+ arg11 7) arg2)) (<= (+ arg19 5) arg2)) (<= (+ arg12 2) arg2)) (<= (+ arg21 4) arg2)) (<= (+ arg20 4) arg2)) (= arg6 arg8)) (= arg11 arg17)) (= arg12 arg18)) (= 1 arg3P)) (= arg4 arg4P)) (= 1 arg5P)) (= 0 arg8P)) (= arg11 arg11P)) (= (- arg12 1) arg12P)) (= arg11 arg17P)) (= (- arg12 1) arg18P)) (= arg19 arg19P))))
    (cfg_trans2 pc f3405_0__init__LE pc1 f3405_0__init__LE (exists ((x267 Int) (x268 Int)) (and (and (and (and (and (and (and (and (and (and (and (and (and (and (and (and (and (and (and (and (and (and (and (and (and (and (and (and (and (and (and (and (and (and (and (and (> arg5 (- 1)) (> arg12 0)) (< x267 arg5)) (< x268 arg6)) (> arg6 (- 1))) (> arg1 8)) (> arg2 8)) (> arg1P 8)) (> arg2P 8)) (<= (+ arg9 9) arg1)) (<= (+ arg10 9) arg1)) (<= (+ arg11 7) arg1)) (<= (+ arg19 5) arg1)) (<= (+ arg12 2) arg1)) (<= (+ arg13 4) arg1)) (<= (+ arg14 4) arg1)) (<= (+ arg15 9) arg2)) (<= (+ arg16 9) arg2)) (<= (+ arg11 7) arg2)) (<= (+ arg19 5) arg2)) (<= (+ arg12 2) arg2)) (<= (+ arg21 4) arg2)) (<= (+ arg20 4) arg2)) (= arg6 arg8)) (= arg11 arg17)) (= arg12 arg18)) (= 1 arg3P)) (= arg4 arg4P)) (= 1 arg5P)) (= 1 arg6P)) (= 1 arg7P)) (= 1 arg8P)) (= arg11 arg11P)) (= (- arg12 1) arg12P)) (= arg11 arg17P)) (= (- arg12 1) arg18P)) (= arg19 arg19P))))
    (cfg_trans2 pc f3120_0__init__GE pc1 f6007_0_hasNext_EQ (exists ((x643 Int) (x644 Int)) (and (and (and (and (and (and (and (and (and (and (and (and (and (and (and (and (and (and (and (and (and (and (and (and (and (and (and (and (and (and (and (> arg6 (- 1)) (> arg4 0)) (< x643 arg6)) (< x644 arg7)) (> x644 0)) (> arg7 (- 1))) (> arg1 8)) (> arg2 8)) (> arg3 6)) (> arg1P 8)) (<= (+ arg8 9) arg1)) (<= (+ arg9 9) arg1)) (<= (+ arg19 7) arg1)) (<= (+ arg20 5) arg1)) (<= (+ arg10 4) arg1)) (<= (+ arg11 4) arg1)) (<= (+ arg12 9) arg2)) (<= (+ arg13 9) arg2)) (<= (+ arg19 7) arg2)) (<= (+ arg20 5) arg2)) (<= (+ arg15 4) arg2)) (<= (+ arg16 4) arg2)) (<= (+ arg17 7) arg3)) (<= (+ arg18 7) arg3)) (<= (+ arg20 3) arg3)) (<= (+ arg19 5) arg3)) (= 0 arg14)) (= arg5 arg2P)) (= arg19 arg3P)) (= arg20 arg4P)) (= 0 arg5P)) (= arg20 arg6P))))
    (cfg_trans2 pc f3120_0__init__GE pc1 f6007_0_hasNext_EQ (exists ((x666 Int) (x667 Int)) (and (and (and (and (and (and (and (and (and (and (and (and (and (and (and (and (and (and (and (and (and (and (and (and (and (and (and (and (and (and (> arg6 (- 1)) (> arg4 0)) (< x666 arg6)) (> arg7 (- 1))) (< x667 arg7)) (> arg1 8)) (> arg2 8)) (> arg3 6)) (> arg1P 8)) (<= (+ arg8 9) arg1)) (<= (+ arg9 9) arg1)) (<= (+ arg19 7) arg1)) (<= (+ arg20 5) arg1)) (<= (+ arg10 4) arg1)) (<= (+ arg11 4) arg1)) (<= (+ arg12 9) arg2)) (<= (+ arg13 9) arg2)) (<= (+ arg19 7) arg2)) (<= (+ arg20 5) arg2)) (<= (+ arg15 4) arg2)) (<= (+ arg16 4) arg2)) (<= (+ arg17 7) arg3)) (<= (+ arg18 7) arg3)) (<= (+ arg20 3) arg3)) (<= (+ arg19 5) arg3)) (= 0 arg14)) (= arg5 arg2P)) (= arg19 arg3P)) (= arg20 arg4P)) (= 0 arg5P)) (= arg20 arg6P))))
    (cfg_trans2 pc f3405_0__init__LE pc1 f6007_0_hasNext_EQ (and (and (and (and (and (and (and (and (and (and (and (and (and (and (and (and (and (and (and (and (and (and (> arg1 8) (> arg2 8)) (> arg1P 8)) (<= (+ arg9 9) arg1)) (<= (+ arg10 9) arg1)) (<= (+ arg11 7) arg1)) (<= (+ arg19 5) arg1)) (<= (+ arg13 4) arg1)) (<= (+ arg14 4) arg1)) (<= (+ arg15 9) arg2)) (<= (+ arg16 9) arg2)) (<= (+ arg11 7) arg2)) (<= (+ arg19 5) arg2)) (<= (+ arg21 4) arg2)) (<= (+ arg20 4) arg2)) (= 0 arg12)) (= arg11 arg17)) (= 0 arg18)) (= arg4 arg2P)) (= arg11 arg3P)) (= arg19 arg4P)) (= 0 arg5P)) (= arg19 arg6P)))
    (cfg_trans2 pc f3120_0__init__GE pc1 f6007_0_hasNext_EQ (exists ((x711 Int) (x712 Int)) (and (and (and (and (and (and (and (and (and (and (and (and (and (and (and (and (and (and (and (and (and (and (and (and (and (and (and (and (and (and (and (and (> arg6 (- 1)) (> arg4 0)) (< x711 arg6)) (< x712 arg7)) (> arg7 (- 1))) (> x712 0)) (> x711 0)) (> arg1 8)) (> arg2 8)) (> arg3 6)) (> arg1P 8)) (<= (+ arg8 9) arg1)) (<= (+ arg9 9) arg1)) (<= (+ arg19 7) arg1)) (<= (+ arg20 5) arg1)) (<= (+ arg10 4) arg1)) (<= (+ arg11 4) arg1)) (<= (+ arg12 9) arg2)) (<= (+ arg13 9) arg2)) (<= (+ arg19 7) arg2)) (<= (+ arg20 5) arg2)) (<= (+ arg15 4) arg2)) (<= (+ arg16 4) arg2)) (<= (+ arg17 7) arg3)) (<= (+ arg18 7) arg3)) (<= (+ arg20 3) arg3)) (<= (+ arg19 5) arg3)) (= 0 arg14)) (= arg5 arg2P)) (= arg19 arg3P)) (= arg20 arg4P)) (= 0 arg5P)) (= arg20 arg6P))))
    (cfg_trans2 pc f3120_0__init__GE pc1 f6007_0_hasNext_EQ (exists ((x734 Int) (x735 Int)) (and (and (and (and (and (and (and (and (and (and (and (and (and (and (and (and (and (and (and (and (and (and (and (and (and (and (and (and (and (and (and (> arg6 (- 1)) (> arg4 0)) (< x734 arg6)) (< x735 arg7)) (> x734 0)) (> arg7 (- 1))) (> arg1 8)) (> arg2 8)) (> arg3 6)) (> arg1P 8)) (<= (+ arg8 9) arg1)) (<= (+ arg9 9) arg1)) (<= (+ arg19 7) arg1)) (<= (+ arg20 5) arg1)) (<= (+ arg10 4) arg1)) (<= (+ arg11 4) arg1)) (<= (+ arg12 9) arg2)) (<= (+ arg13 9) arg2)) (<= (+ arg19 7) arg2)) (<= (+ arg20 5) arg2)) (<= (+ arg15 4) arg2)) (<= (+ arg16 4) arg2)) (<= (+ arg17 7) arg3)) (<= (+ arg18 7) arg3)) (<= (+ arg20 3) arg3)) (<= (+ arg19 5) arg3)) (= 0 arg14)) (= arg5 arg2P)) (= arg19 arg3P)) (= arg20 arg4P)) (= 0 arg5P)) (= arg20 arg6P))))
    (cfg_trans2 pc f6007_0_hasNext_EQ pc1 f6007_0_hasNext_EQ (exists ((x384 Int)) (and (and (and (and (and (and (and (and (and (and (and (< x384 arg2) (> arg3 arg5)) (> arg2 (- 1))) (> arg1 2)) (> arg1P 2)) (<= (+ arg3 7) arg1)) (<= (+ arg5 2) arg1)) (<= (+ arg4 5) arg1)) (= arg4 arg6)) (= 2 arg2P)) (= (+ arg5 1) arg5P)) (= arg4 arg6P))))
    (cfg_trans2 pc f6007_0_hasNext_EQ pc1 f6007_0_hasNext_EQ (exists ((x745 Int)) (and (and (and (and (and (and (and (and (and (and (and (< x745 arg2) (< arg3 arg5)) (> arg2 (- 1))) (> arg1 2)) (> arg1P 2)) (<= (+ arg3 7) arg1)) (<= (+ arg5 2) arg1)) (<= (+ arg4 5) arg1)) (= arg4 arg6)) (= 2 arg2P)) (= (+ arg5 1) arg5P)) (= arg4 arg6P))))
    (cfg_trans2 pc f6007_0_hasNext_EQ pc1 f6007_0_hasNext_EQ (exists ((x394 Int) (x395 Int) (x396 Int) (x397 Int)) (and (and (and (and (and (and (and (and (and (and (and (and (and (and (> arg3 arg5) (> x394 0)) (> arg2 (- 1))) (< x394 arg2)) (< x395 0)) (< x396 1)) (< x397 x394)) (> arg1 2)) (> arg1P 2)) (<= (+ arg3 7) arg1)) (<= (+ arg5 2) arg1)) (<= (+ arg4 5) arg1)) (= arg4 arg6)) (= (+ arg5 1) arg5P)) (= arg4 arg6P))))
    (cfg_trans2 pc f6007_0_hasNext_EQ pc1 f6007_0_hasNext_EQ (exists ((x756 Int) (x757 Int) (x758 Int) (x759 Int)) (and (and (and (and (and (and (and (and (and (and (and (and (and (and (< arg3 arg5) (> x756 0)) (> arg2 (- 1))) (< x756 arg2)) (< x757 0)) (< x758 1)) (< x759 x756)) (> arg1 2)) (> arg1P 2)) (<= (+ arg3 7) arg1)) (<= (+ arg5 2) arg1)) (<= (+ arg4 5) arg1)) (= arg4 arg6)) (= (+ arg5 1) arg5P)) (= arg4 arg6P))))
    (cfg_trans2 pc f1_0_main_Load pc1 f431_0_createList_Load (and (and (and (and (and (and (and (> arg1P (- 1)) (> arg2 0)) (<= (- arg2P 7) arg1)) (> arg1 0)) (> arg2P 7)) (= 1 arg5P)) (= 0 arg6P)) (= 0 arg7P)))
    (cfg_trans2 pc f817_0_createList_Load pc1 f1829_0_createList_LE (and (and (and (and (and (and (and (and (and (and (and (and (and (and (and (and (and (and (and (and (and (and (and (and (and (> arg2 11) (> arg1P 11)) (<= (+ arg20 9) arg2)) (<= (+ arg21 9) arg2)) (<= (+ arg23 3) arg2)) (<= (+ arg22 5) arg2)) (= arg1 arg2P)) (= arg13 arg3P)) (= arg11 arg4P)) (= arg7 arg5P)) (= arg12 arg6P)) (= arg6 arg7P)) (= arg3 arg9P)) (= arg14 arg10P)) (= arg5 arg11P)) (= 0 arg12P)) (= arg4 arg13P)) (= arg8 arg14P)) (= arg9 arg15P)) (= arg10 arg16P)) (= arg15 arg17P)) (= arg16 arg18P)) (= arg17 arg19P)) (= arg19 arg20P)) (= arg22 arg24P)) (= arg23 arg25P)))
    (cfg_trans2 pc f1829_0_createList_LE pc1 f1829_0_createList_LE (exists ((x432 Int) (x473 Int)) (and (and (and (and (and (and (and (and (and (and (and (and (and (and (and (and (and (and (and (and (and (and (and (and (and (and (and (and (and (and (and (and (and (and (and (and (and (and (> arg2 0) (> x432 (- 1))) (> arg6 0)) (> arg3 0)) (> arg20 (- 1))) (< arg20 x432)) (> arg10 0)) (> arg4 0)) (> arg13 0)) (> arg11 0)) (> arg12 0)) (> x473 (- 1))) (> arg9 0)) (> arg5 0)) (> arg19 0)) (> arg14 0)) (> arg18 0)) (> arg17 0)) (> arg15 0)) (> arg16 0)) (> arg25 (- 1))) (> arg24 (- 1))) (> arg1 9)) (> arg1P 9)) (<= (+ arg21 9) arg1)) (<= (+ arg22 9) arg1)) (<= (+ arg23 9) arg1)) (<= (+ arg25 3) arg1)) (<= (+ arg24 5) arg1)) (= (- arg2 1) arg2P)) (= arg3 arg3P)) (= arg6 arg6P)) (= arg7 arg7P)) (= arg8 arg8P)) (= arg10 arg10P)) (= arg12 arg12P)) (= (+ arg20 1) arg20P)) (= (+ arg24 1) arg24P)) (= (+ arg25 1) arg25P))))
    (cfg_trans2 pc f1829_0_createList_LE pc1 f1829_0_createList_LE (exists ((x474 Int) (x509 Int)) (and (and (and (and (and (and (and (and (and (and (and (and (and (and (and (and (and (and (and (and (and (and (and (and (and (and (and (and (and (and (and (and (and (and (and (and (and (> arg2 0) (> x474 (- 1))) (> arg6 0)) (> arg3 0)) (> arg20 (- 1))) (< arg20 x474)) (> arg10 0)) (> arg12 0)) (> x509 (- 1))) (> arg19 0)) (> arg18 0)) (> arg17 0)) (> arg8 0)) (> arg25 (- 1))) (> arg24 (- 1))) (> arg1 11)) (> arg1P 13)) (<= (+ arg21 9) arg1)) (<= (+ arg22 9) arg1)) (<= (+ arg23 9) arg1)) (<= (+ arg25 3) arg1)) (<= (+ arg24 5) arg1)) (= arg8 arg9)) (= arg10 arg11)) (= arg12 arg13)) (= arg7 arg16)) (= (- arg2 1) arg2P)) (= 0 arg3P)) (= 1 arg4P)) (= 1 arg5P)) (= arg8 arg8P)) (= arg10 arg10P)) (= arg12 arg12P)) (= 0 arg13P)) (= 2 arg15P)) (= (+ arg20 1) arg20P)) (= (+ arg24 1) arg24P)) (= (+ arg25 1) arg25P))))
    (cfg_trans2 pc f1887_0_random_ArrayAccess pc1 f2511_0_createList_Load (exists ((x511 Int)) (and (and (and (and (and (and (and (< x511 arg2) (> x511 (- 1))) (> arg2 0)) (> arg2P 7)) (> arg1P (- 1))) (= (+ x511 1) arg5P)) (= 0 arg6P)) (= 0 arg7P))))
    (cfg_trans2 pc f2869_0_createList_Load pc1 f4131_0_createList_LE (and (and (and (and (and (and (and (and (and (and (and (and (and (and (and (and (and (and (and (and (and (and (and (and (and (> arg2 11) (> arg1P 11)) (<= (+ arg20 9) arg2)) (<= (+ arg21 9) arg2)) (<= (+ arg23 3) arg2)) (<= (+ arg22 5) arg2)) (= arg1 arg2P)) (= arg13 arg3P)) (= arg11 arg4P)) (= arg7 arg5P)) (= arg12 arg6P)) (= arg6 arg7P)) (= arg3 arg9P)) (= arg14 arg10P)) (= arg5 arg11P)) (= 0 arg12P)) (= arg4 arg13P)) (= arg8 arg14P)) (= arg9 arg15P)) (= arg10 arg16P)) (= arg15 arg17P)) (= arg16 arg18P)) (= arg17 arg19P)) (= arg19 arg20P)) (= arg22 arg24P)) (= arg23 arg25P)))
    (cfg_trans2 pc f4131_0_createList_LE pc1 f4131_0_createList_LE (exists ((x545 Int) (x586 Int)) (and (and (and (and (and (and (and (and (and (and (and (and (and (and (and (and (and (and (and (and (and (and (and (and (and (and (and (and (and (and (and (and (and (and (and (and (and (and (> arg2 0) (> x545 (- 1))) (> arg6 0)) (> arg3 0)) (> arg20 (- 1))) (< arg20 x545)) (> arg10 0)) (> arg4 0)) (> arg13 0)) (> arg11 0)) (> arg12 0)) (> x586 (- 1))) (> arg9 0)) (> arg5 0)) (> arg18 0)) (> arg14 0)) (> arg19 0)) (> arg17 0)) (> arg15 0)) (> arg16 0)) (> arg25 (- 1))) (> arg24 (- 1))) (> arg1 9)) (> arg1P 9)) (<= (+ arg21 9) arg1)) (<= (+ arg22 9) arg1)) (<= (+ arg23 9) arg1)) (<= (+ arg25 3) arg1)) (<= (+ arg24 5) arg1)) (= (- arg2 1) arg2P)) (= arg3 arg3P)) (= arg6 arg6P)) (= arg7 arg7P)) (= arg8 arg8P)) (= arg10 arg10P)) (= arg12 arg12P)) (= (+ arg20 1) arg20P)) (= (+ arg24 1) arg24P)) (= (+ arg25 1) arg25P))))
    (cfg_trans2 pc f4131_0_createList_LE pc1 f4131_0_createList_LE (exists ((x587 Int) (x622 Int)) (and (and (and (and (and (and (and (and (and (and (and (and (and (and (and (and (and (and (and (and (and (and (and (and (and (and (and (and (and (and (and (and (and (and (and (and (and (> arg2 0) (> x587 (- 1))) (> arg6 0)) (> arg3 0)) (> arg20 (- 1))) (< arg20 x587)) (> arg10 0)) (> arg12 0)) (> x622 (- 1))) (> arg18 0)) (> arg19 0)) (> arg17 0)) (> arg8 0)) (> arg25 (- 1))) (> arg24 (- 1))) (> arg1 11)) (> arg1P 13)) (<= (+ arg21 9) arg1)) (<= (+ arg22 9) arg1)) (<= (+ arg23 9) arg1)) (<= (+ arg25 3) arg1)) (<= (+ arg24 5) arg1)) (= arg8 arg9)) (= arg10 arg11)) (= arg12 arg13)) (= arg7 arg16)) (= (- arg2 1) arg2P)) (= 0 arg3P)) (= 1 arg4P)) (= 1 arg5P)) (= arg8 arg8P)) (= arg10 arg10P)) (= arg12 arg12P)) (= 0 arg13P)) (= 2 arg15P)) (= (+ arg20 1) arg20P)) (= (+ arg24 1) arg24P)) (= (+ arg25 1) arg25P))))
    (cfg_trans2 pc __init pc1 f1_0_main_Load true)
  )
)
